 Code  1631
 Dimension, Fixed Cost
   100        3000
 Facility, Client, Transportation Cost
     1        1           2
     1        4           2
     1       10           1
     1       16           4
     1       29           4
     1       41           2
     1       80           1
     1       84           3
     1       86           0
     1       87           1
     2        1           1
     2       10           2
     2       11           1
     2       23           4
     2       31           1
     2       39           4
     2       47           4
     2       82           1
     2       83           1
     2       88           3
     3        1           3
     3       10           1
     3       19           2
     3       20           2
     3       22           4
     3       25           1
     3       29           3
     3       49           1
     3       78           4
     3       97           0
     4       22           0
     4       39           4
     4       47           2
     4       54           3
     4       60           1
     4       80           3
     4       84           0
     4       85           3
     4       86           1
     4       93           4
     5        1           1
     5       21           0
     5       44           3
     5       48           0
     5       53           0
     5       57           3
     5       62           0
     5       77           2
     5       89           0
     5       95           3
     6        3           2
     6        8           3
     6       10           2
     6       14           1
     6       17           1
     6       29           2
     6       53           0
     6       56           1
     6       57           2
     6       62           2
     7        6           2
     7       26           1
     7       31           1
     7       38           2
     7       48           1
     7       51           4
     7       53           4
     7       61           0
     7       68           0
     7       75           4
     8        7           2
     8       14           4
     8       18           2
     8       29           0
     8       51           2
     8       63           3
     8       65           4
     8       73           4
     8       92           3
     8       94           0
     9        2           4
     9       15           1
     9       31           0
     9       46           0
     9       47           3
     9       49           2
     9       60           4
     9       79           0
     9       81           4
     9       97           2
    10        1           2
    10        3           0
    10        7           0
    10       13           2
    10       27           2
    10       60           1
    10       73           2
    10       95           3
    10       96           3
    10       97           4
    11        8           2
    11       10           4
    11       11           2
    11       13           3
    11       19           1
    11       26           0
    11       27           1
    11       38           2
    11       77           3
    11       88           1
    12       21           2
    12       22           2
    12       36           1
    12       39           0
    12       61           3
    12       68           2
    12       74           4
    12       83           3
    12       85           2
    12       99           2
    13        1           0
    13       27           0
    13       50           0
    13       55           1
    13       63           3
    13       70           3
    13       81           1
    13       86           4
    13       99           4
    13      100           2
    14       11           1
    14       39           1
    14       57           2
    14       61           3
    14       70           2
    14       72           3
    14       75           4
    14       80           2
    14       89           3
    14       92           1
    15        5           1
    15       21           3
    15       63           1
    15       65           2
    15       84           4
    15       87           2
    15       90           1
    15       91           0
    15       95           3
    15       98           4
    16        2           2
    16        4           3
    16       10           0
    16       13           2
    16       71           2
    16       81           1
    16       83           0
    16       90           3
    16       91           0
    16       99           2
    17       18           2
    17       24           4
    17       27           4
    17       29           3
    17       39           0
    17       43           0
    17       51           3
    17       66           4
    17       68           2
    17       75           1
    18        9           4
    18       11           2
    18       44           4
    18       52           4
    18       54           1
    18       55           0
    18       63           2
    18       92           0
    18       96           1
    18      100           2
    19        6           3
    19       25           4
    19       37           0
    19       44           1
    19       65           3
    19       68           2
    19       70           0
    19       71           0
    19       82           4
    19       92           2
    20       24           1
    20       27           1
    20       32           3
    20       42           2
    20       55           4
    20       60           1
    20       61           4
    20       73           4
    20       81           2
    20       94           4
    21       12           1
    21       15           3
    21       43           2
    21       44           0
    21       65           4
    21       74           0
    21       79           4
    21       83           2
    21       91           0
    21       99           1
    22        6           2
    22       31           1
    22       48           0
    22       57           0
    22       61           4
    22       62           3
    22       70           3
    22       80           4
    22       83           0
    22       91           3
    23        5           3
    23       10           4
    23       18           3
    23       37           4
    23       44           4
    23       46           3
    23       68           1
    23       79           4
    23       81           4
    23      100           4
    24        3           1
    24       20           3
    24       30           0
    24       33           0
    24       37           2
    24       38           4
    24       44           4
    24       75           1
    24       81           0
    24       95           0
    25       15           3
    25       17           0
    25       36           1
    25       41           4
    25       46           2
    25       58           0
    25       66           2
    25       68           1
    25       88           3
    25       99           0
    26        4           4
    26       13           0
    26       29           4
    26       32           1
    26       42           0
    26       67           3
    26       78           0
    26       80           1
    26       94           2
    26       98           1
    27       36           4
    27       43           1
    27       44           3
    27       61           2
    27       63           2
    27       67           0
    27       79           0
    27       86           2
    27       87           3
    27       93           4
    28       15           2
    28       51           0
    28       63           0
    28       71           3
    28       72           3
    28       76           2
    28       79           4
    28       90           0
    28       94           4
    28       96           1
    29        4           2
    29       20           0
    29       37           3
    29       50           4
    29       61           3
    29       65           3
    29       81           0
    29       82           3
    29       92           3
    29       94           0
    30        1           3
    30        2           1
    30        3           3
    30        4           2
    30       18           2
    30       19           0
    30       30           2
    30       61           4
    30       67           3
    30       99           2
    31        3           4
    31        5           1
    31       26           3
    31       28           3
    31       50           4
    31       51           4
    31       60           1
    31       76           0
    31       86           3
    31       96           4
    32        5           4
    32        6           1
    32       11           4
    32       32           4
    32       42           3
    32       45           2
    32       48           3
    32       58           0
    32       63           1
    32       94           1
    33       10           4
    33       14           3
    33       21           1
    33       23           1
    33       43           2
    33       49           4
    33       52           3
    33       56           3
    33       59           2
    33       89           0
    34        1           1
    34        5           3
    34        8           3
    34       38           1
    34       50           4
    34       51           4
    34       60           3
    34       63           0
    34       85           3
    34       91           2
    35       12           4
    35       13           3
    35       14           1
    35       24           1
    35       45           3
    35       46           4
    35       65           1
    35       78           2
    35       90           3
    35       91           3
    36       25           0
    36       26           1
    36       33           3
    36       38           4
    36       43           0
    36       45           4
    36       59           2
    36       75           3
    36       78           1
    36       82           0
    37        3           1
    37       24           0
    37       37           4
    37       44           1
    37       46           0
    37       58           1
    37       63           3
    37       65           1
    37       69           0
    37       94           4
    38        4           1
    38        9           1
    38       32           3
    38       41           1
    38       48           3
    38       50           3
    38       59           0
    38       65           3
    38       68           4
    38       94           1
    39        2           1
    39       27           0
    39       38           1
    39       42           4
    39       43           2
    39       58           4
    39       75           0
    39       80           1
    39       82           3
    39       84           1
    40        1           0
    40       10           0
    40       14           2
    40       36           3
    40       44           3
    40       50           3
    40       74           4
    40       84           1
    40       88           4
    40       90           2
    41        9           1
    41       14           1
    41       25           3
    41       30           4
    41       44           0
    41       52           2
    41       67           3
    41       71           3
    41       79           0
    41       95           0
    42       16           3
    42       17           2
    42       28           3
    42       31           3
    42       42           1
    42       43           2
    42       55           4
    42       61           2
    42       80           2
    42       91           2
    43        5           4
    43        6           4
    43        8           0
    43       11           0
    43       38           1
    43       51           2
    43       58           1
    43       61           1
    43       67           0
    43       85           1
    44       17           3
    44       38           2
    44       52           0
    44       62           4
    44       71           0
    44       73           1
    44       76           0
    44       79           2
    44       95           3
    44      100           0
    45        2           3
    45       40           4
    45       42           0
    45       51           3
    45       52           1
    45       53           0
    45       68           4
    45       69           3
    45       89           1
    45       93           3
    46        5           3
    46       16           2
    46       19           4
    46       38           3
    46       56           3
    46       64           1
    46       71           2
    46       88           1
    46       90           4
    46       99           2
    47        1           0
    47        7           3
    47       19           2
    47       41           1
    47       60           2
    47       74           2
    47       75           2
    47       80           0
    47       87           1
    47       91           4
    48       26           2
    48       36           4
    48       48           3
    48       57           4
    48       61           3
    48       66           1
    48       84           3
    48       85           3
    48       88           3
    48       90           1
    49        1           3
    49       21           0
    49       37           1
    49       48           0
    49       64           2
    49       66           0
    49       75           1
    49       81           1
    49       94           4
    49       97           4
    50        7           2
    50        8           4
    50       16           3
    50       36           1
    50       37           1
    50       58           2
    50       59           2
    50       77           1
    50       81           4
    50       87           2
    51       10           4
    51       30           0
    51       42           3
    51       50           2
    51       72           0
    51       76           3
    51       79           4
    51       90           3
    51       95           3
    51      100           1
    52       24           4
    52       34           2
    52       36           1
    52       48           4
    52       49           4
    52       65           4
    52       72           2
    52       78           2
    52       82           4
    52       92           1
    53        6           4
    53        7           2
    53       17           1
    53       19           1
    53       25           0
    53       37           3
    53       44           2
    53       59           0
    53       82           0
    53       86           1
    54        3           2
    54       18           0
    54       46           0
    54       48           4
    54       56           0
    54       58           2
    54       59           3
    54       71           0
    54       96           4
    54       97           2
    55        9           4
    55       19           0
    55       22           3
    55       33           0
    55       52           1
    55       53           4
    55       58           3
    55       69           2
    55       85           0
    55       87           1
    56       10           1
    56       11           3
    56       25           4
    56       29           3
    56       36           4
    56       37           4
    56       50           0
    56       69           4
    56       88           0
    56       95           3
    57       34           4
    57       37           0
    57       50           2
    57       53           1
    57       62           0
    57       63           4
    57       66           3
    57       68           3
    57       75           0
    57       92           2
    58        3           0
    58       11           0
    58       17           3
    58       21           3
    58       49           1
    58       63           4
    58       67           2
    58       72           0
    58       85           3
    58       87           1
    59       13           3
    59       17           1
    59       21           3
    59       30           3
    59       33           3
    59       36           3
    59       47           2
    59       58           0
    59       71           4
    59       96           4
    60        8           3
    60       31           1
    60       47           4
    60       58           1
    60       66           0
    60       71           0
    60       72           0
    60       78           1
    60       87           4
    60       93           4
    61        6           3
    61       11           3
    61       17           0
    61       20           4
    61       43           1
    61       48           3
    61       51           0
    61       58           3
    61       65           3
    61       81           4
    62        7           0
    62        8           4
    62       31           0
    62       39           3
    62       50           2
    62       68           0
    62       71           4
    62       75           1
    62       85           1
    62       96           4
    63       25           4
    63       26           3
    63       29           4
    63       32           2
    63       49           0
    63       55           0
    63       59           2
    63       85           2
    63       98           1
    63      100           0
    64        2           4
    64       10           2
    64       12           3
    64       15           3
    64       32           2
    64       64           0
    64       67           2
    64       75           0
    64       85           4
    64       89           1
    65        1           3
    65        5           0
    65       19           1
    65       30           0
    65       37           4
    65       39           1
    65       54           2
    65       69           1
    65       86           1
    65       97           2
    66        3           1
    66       23           2
    66       51           3
    66       52           2
    66       56           2
    66       67           4
    66       75           3
    66       83           0
    66       95           1
    66       98           3
    67        6           3
    67        8           0
    67       29           3
    67       45           3
    67       46           4
    67       53           4
    67       59           3
    67       71           0
    67       72           2
    67       99           2
    68       10           0
    68       20           3
    68       21           0
    68       42           4
    68       44           2
    68       74           0
    68       79           0
    68       85           3
    68       95           4
    68       99           3
    69        1           3
    69        6           4
    69       13           1
    69       22           3
    69       29           2
    69       42           1
    69       47           1
    69       49           3
    69       58           1
    69       61           2
    70       12           3
    70       18           4
    70       44           4
    70       45           1
    70       46           1
    70       53           2
    70       60           1
    70       61           2
    70       63           3
    70       91           4
    71       12           3
    71       18           3
    71       24           4
    71       33           3
    71       47           3
    71       57           2
    71       60           0
    71       75           4
    71       82           3
    71       99           1
    72        6           1
    72        8           3
    72        9           3
    72       15           0
    72       54           3
    72       56           3
    72       62           3
    72       70           0
    72       80           3
    72       85           3
    73        7           0
    73       16           0
    73       26           4
    73       29           0
    73       41           1
    73       55           4
    73       57           3
    73       75           2
    73       92           1
    73       97           3
    74       12           0
    74       14           4
    74       17           1
    74       22           3
    74       29           4
    74       32           1
    74       61           1
    74       69           2
    74       80           4
    74       87           3
    75       21           1
    75       30           0
    75       31           4
    75       36           4
    75       37           2
    75       38           4
    75       50           2
    75       85           4
    75       89           0
    75       95           4
    76        6           3
    76       12           1
    76       13           2
    76       17           3
    76       52           2
    76       53           0
    76       62           1
    76       71           1
    76       89           4
    76       92           3
    77       17           2
    77       19           3
    77       27           4
    77       34           2
    77       37           4
    77       43           3
    77       45           4
    77       56           3
    77       76           2
    77       96           2
    78        2           0
    78        5           1
    78       29           4
    78       37           1
    78       58           0
    78       65           1
    78       69           4
    78       74           2
    78       87           2
    78       96           3
    79        6           3
    79       12           1
    79       20           1
    79       25           4
    79       28           3
    79       35           3
    79       43           0
    79       51           2
    79       70           2
    79       78           0
    80        1           3
    80        6           3
    80       29           0
    80       33           2
    80       44           1
    80       50           0
    80       57           0
    80       63           2
    80       64           1
    80       75           2
    81        5           1
    81       15           0
    81       48           4
    81       52           3
    81       53           4
    81       66           0
    81       85           2
    81       91           3
    81       96           3
    81       99           3
    82       23           1
    82       30           0
    82       33           2
    82       36           4
    82       39           1
    82       48           4
    82       51           4
    82       52           3
    82       63           3
    82       73           4
    83       20           2
    83       25           4
    83       45           3
    83       53           1
    83       59           4
    83       67           2
    83       71           2
    83       74           2
    83       77           3
    83       99           3
    84        2           0
    84        9           3
    84       14           4
    84       17           0
    84       20           4
    84       33           0
    84       59           1
    84       70           1
    84       82           4
    84       95           3
    85        6           2
    85        7           3
    85       16           1
    85       24           3
    85       29           4
    85       42           3
    85       60           3
    85       62           0
    85       64           0
    85       66           0
    86       32           2
    86       42           3
    86       48           0
    86       53           0
    86       68           2
    86       69           0
    86       71           2
    86       78           0
    86       84           4
    86       91           3
    87        4           1
    87       17           0
    87       21           0
    87       27           4
    87       31           3
    87       32           4
    87       37           2
    87       43           2
    87       79           1
    87       82           2
    88       11           2
    88       14           0
    88       34           4
    88       37           1
    88       42           4
    88       45           1
    88       60           1
    88       61           0
    88       91           4
    88       95           4
    89       14           0
    89       16           4
    89       20           3
    89       29           1
    89       52           3
    89       66           2
    89       67           1
    89       86           4
    89       87           4
    89       96           3
    90        7           4
    90       25           3
    90       35           4
    90       44           4
    90       51           1
    90       52           3
    90       57           3
    90       70           2
    90       80           1
    90       96           1
    91       17           1
    91       19           1
    91       27           2
    91       32           3
    91       50           3
    91       59           1
    91       72           3
    91       77           4
    91       81           0
    91       93           0
    92       15           1
    92       17           4
    92       30           0
    92       31           4
    92       34           2
    92       41           4
    92       45           4
    92       76           0
    92       78           4
    92       87           2
    93        4           3
    93        6           4
    93        8           0
    93       12           4
    93       13           0
    93       45           1
    93       65           4
    93       68           4
    93       86           0
    93       88           1
    94        3           4
    94        8           1
    94       10           3
    94       18           2
    94       21           2
    94       54           3
    94       70           2
    94       78           1
    94       92           4
    94      100           3
    95        1           0
    95        2           0
    95       18           3
    95       34           4
    95       46           1
    95       47           4
    95       53           2
    95       57           3
    95       68           4
    95       94           3
    96        1           4
    96        6           4
    96       13           4
    96       14           1
    96       21           0
    96       26           4
    96       28           2
    96       33           2
    96       41           2
    96       46           4
    97        6           3
    97       46           1
    97       54           0
    97       68           2
    97       70           0
    97       85           1
    97       88           3
    97       91           1
    97       95           4
    97       97           3
    98        2           3
    98        6           0
    98       15           1
    98       33           2
    98       37           0
    98       42           0
    98       53           2
    98       64           4
    98       71           2
    98       73           0
    99        1           2
    99        3           1
    99        8           2
    99       18           4
    99       23           2
    99       39           4
    99       40           1
    99       46           3
    99       49           3
    99       79           4
   100        2           2
   100        7           4
   100       11           0
   100       17           0
   100       29           4
   100       53           4
   100       55           0
   100       64           1
   100       82           0
   100       88           4
